Instances/Formatted_Instances/inst03.dzn
m = 3;
n = 7;
mindist = 4;
time = 6;
l = [15, 10, 7];
s = [3, 2, 6, 8, 5, 4, 4];
max_dist = 35;
distances = [| 0, 3, 3, 6, 5, 6, 6, 2, 
 		     | 3, 0, 6, 3, 4, 7, 7, 3, 
 		     | 3, 4, 0, 7, 6, 3, 5, 3, 
 		     | 6, 3, 7, 0, 5, 6, 7, 4, 
 		     | 5, 4, 6, 3, 0, 3, 3, 3, 
 		     | 6, 7, 3, 6, 3, 0, 2, 4, 
 		     | 6, 7, 5, 6, 3, 2, 0, 4, 
 		     | 2, 3, 3, 4, 3, 4, 4, 0 |];
