Instances/Python_Instances/inst03.txt
inst03 = {
    'm': 3,
    'n': 7,
    'l': [15, 10, 7],
    's': [3, 2, 6, 8, 5, 4, 4],
    'min_dist': 4,
    'max_dist': 42,
    'min_solu': 8,
    'time': 5,
    'at_least_one': 1,
    'min_load': 2,
    'max_load': 15,
    'distances': [[0, 3, 3, 6, 5, 6, 6, 2], [3, 0, 6, 3, 4, 7, 7, 3], [3, 4, 0, 7, 6, 3, 5, 3]]
}